NAME : pr124
TYPE : OP
DIMENSION : 124
COST_LIMIT : 29515
ROUTE_NODES : 75
ROUTE_SCORE : 3899
ROUTE_COST : 29017
NODE_SEQUENCE_SECTION
1
8
7
27
28
29
35
36
26
38
24
25
22
23
39
40
37
55
56
57
58
67
83
81
82
84
115
116
117
118
119
120
121
122
123
124
100
99
98
97
96
95
94
93
92
80
79
78
77
76
75
74
73
72
71
70
69
68
64
63
65
66
62
60
61
59
33
34
30
31
32
6
4
3
2
-1
DEPOT_SECTION
1
-1
EOF
